p cnf 8 32 
c Factors encoded in variables 1-5 and 6-8
c Target number: 119
c Factors: 17 x 7
-5 3 8 -7 0
-5 -4 3 -8 -7 0
4 8 0
-5 -3 -7 0
5 -3 2 -7 0
-5 8 7 0
-5 -4 -3 7 0
-2 -7 0
2 3 4 5 0
-4 8 7 0
-5 -3 8 0
5 -4 -3 -2 -7 0
-4 -3 -2 -7 0
1 0
5 -4 8 0
-4 -8 -7 0
-3 -8 0
5 4 0
-4 -3 -2 0
-4 3 2 0
5 -4 -3 -2 -8 7 0
5 -2 -8 7 0
-4 -3 0
-5 7 0
5 3 0
2 7 0
-5 -4 -3 -7 0
5 -8 0
3 8 0
6 0
5 4 8 0
7 8 0
